56463
15, 46, 36, 39, 16, 9, 14, 12, 18, 30, 4, 47, 54, 34, 53, 23, 17, 48, 19, 44, 38, 8, 32, 41, 13, 51, 37, 20, 50, 24, 35, 5, 7, 40, 43, 3, 6, 28, 55, 26, 49, 21, 29, 10, 22, 2, 52, 45, 42, 33, 1, 27, 31, 11, 25
